existingVMs = {vmN1,vmN2,vmN3,vmN4,vmN5,vmN6,vmN7,vmN8,vmN9,vmN10,vmN11,vmN12,vmN13,vmN14,vmN15,vmN16,vmN17,vmN18,vmN19,vmN20,vmN21,vmN22,vmN23,vmN24,vmN25,vmN26,vmN27,vmN28,vmN29,vmN30,vmN31,vmN32,vmN33,vmN34,vmN35,vmN36,vmN37,vmN38,vmN39,vmN40,vmN41,vmN42,vmN43,vmN44,vmN45,vmN46,vmN47,vmN48,vmN49,vmN50,vmN51,vmN52,vmN53,vmN54,vmN55,vmN56,vmN57,vmN58,vmN59,vmN60,vmN61,vmN62,vmN63,vmN64,vmN65,vmN66,vmN67,vmN68,vmN69,vmN70,vmN71,vmN72,vmN73,vmN74,vmN75,vmN76,vmN77,vmN78,vmN79,vmN80,vmN81,vmN82,vmN83,vmN84,vmN85,vmN86,vmN87};

vmCPU = [2,2,2,6,3,2,2,3,2,1,2,3,4,2,10,4,1,3,5,5,4,2,2,2,2,2,2,2,2,2,8,7,6,4,5,2,2,2,2,5,2,6,6,7,2,2,2,2,8,6,2,5,6,3,8,1,3,2,2,8,4,8,2,2,2,2,6,2,2,2,2,4,2,6,3,2,2,8,3,2,4,4,2,1,3,2,2];
vmRAM = [12, 24, 4, 23, 16, 32, 7, 32, 8, 40, 4, 46, 8, 16, 27, 4, 20, 25, 30, 35, 48, 29, 29, 29, 29, 29, 29, 29, 29, 29, 90, 180, 4,4,48,26,26,26,26,50,32,60,58,98,15,4,4,4,20,32,32,20,50,40,46,20,16,10,10,4,35,70,15,15,15,15,160,4,20,31,31,24,32,50,65,16,4,36,50,11,24,30,16,16,24,20,32];
vmDisk = [460, 1440, 110, 260, 1120, 200, 267, 134, 213, 330, 77, 150, 208, 578, 525, 40, 20, 450, 545, 380, 402, 163, 163, 163, 163, 163, 163, 163, 163, 163, 6431, 1722, 110, 110, 249, 224, 224, 224, 224, 4675, 200, 380, 336, 296, 574, 77, 77, 149, 426, 120, 2509, 273, 419, 237, 2267, 20, 149, 149, 149, 70, 170, 2882, 151, 151, 151, 151, 1328, 110, 245, 225, 225, 3036, 200, 287, 153, 150, 77, 650, 800, 148, 1862, 539, 181, 2601, 244, 3466, 200];

vmSizes = {E2as_v4, E4as_v4, E8as_v4, E16as_v4, E20as_v4, E32as_v4, E48as_v4, E64as_v4, E96as_v4, E2ds_v4, E4ds_v4, E8ds_v4, E16ds_v4, E20ds_v4, E32ds_v4, E48ds_v4, E64ds_v4, D2as_v4, D4as_v4, D8as_v4, D16as_v4, D32as_v4, D48as_v4, D64as_v4, D96as_v4, M8ms, M16ms};
vmSizeCPU = [2,4,8,16,20,32,48,64,96,2,4,8,16,20,32,48,64,2,4,8,16,32,48,64,96, 8, 16];
vmSizeRAM = [16,32,64,128,160,256,384,512,672,16,32,64,128,160,256,384,504,8,16,32,64,128,192,256,384, 218.75, 437.5];
vmSizePrice = [0.126, 0.252, 0.504, 1.008, 1.26, 2.016, 3.024, 4.032, 6.048, 0.144, 0.288, 0.576, 1.152, 1.44, 2.304, 3.456, 4.608,0.096, 0.192, 0.384, 0.768, 1.536, 2.304, 3.072, 4.608, 1.5365, 3.073];

vmDisks = {E1, E2, E3, E4, E6, E10, E15, E20, E30, E40, E50, E60, E70, E80};
vmDiskSizes = [4, 8, 16, 32, 64, 128, 256, 512, 1024, 2048, 4096, 8192, 16384, 32767];
vmDiskPrice = [0.30, 0.60, 1.20, 2.40, 4.80, 9.60, 19.20, 38.40, 76.80, 153.60, 307.20, 614.40, 1228.80, 2457.60]; % this is Price per month
